163
1000
543
149
1
366
477
13
330
31
853
658
322
102
127
516
210
363
716
125
159
490
77
841
181
216
25
8
42
309
16
603
523
87
118
875
287
251
525
27
571
90
412
159
326
841
204
20
639
528
429
768
3
132
724
416
406
454
909
454
833
260
594
74
397
130
210
274
449
75
660
121
276
713
22
588
506
825
95
637
314
79
709
576
466
237
130
913
469
361
11
326
420
447
472
538
560
947
494
531
470
133
72
77
164
360
613
554
972
63
872
360
425
189
254
603
363
309
116
223
622
136
42
816
483
320
284
18
629
159
637
232
125
539
487
112
148
680
232
76
48
363
106
236
740
128
354
302
928
53
478
452
91
340
513
43
320
291
177
397
921
439
433
517
575
